unknown
(model
; cardinality of BoundSet is 1
(declare-sort BoundSet 0)
; rep: @uc_BoundSet_0
(declare-sort UnboundSet 0)
(define-fun IsHasSkateboard ((BOUND_VARIABLE_402 BoundSet)) Bool true)
(define-fun HasSkateboard ((BOUND_VARIABLE_402 BoundSet)) Bool true)
(define-fun IsInBlackShirt ((BOUND_VARIABLE_402 BoundSet)) Bool false)
)
